(set-logic QF_LIA)
(declare-fun Atti_absqBT() Int)
(declare-fun Changeable_qUL() Int)
(declare-fun DeltaT() Int)
(declare-fun FailureFlag() Int)
(declare-fun Flg_BZ5() Int)
(declare-fun Flg_ZT11() Int)
(declare-fun OrbitCmd_Tgon() Int)
(declare-fun Time_T() Int)
(declare-fun TkCount_NUMStarDirThu() Int)
(declare-fun TkCount_TjsumX() Int)
(declare-fun TkCount_TjsumY() Int)
(declare-fun TkCount_TjsumZ() Int)
(declare-fun WMInitFlg() Int)
(declare-fun temp1() Int)
(declare-fun temp2() Int)
(declare-fun tmp() Int)
(declare-fun tmpT() Int)
(assert(and (> OrbitCmd_Tgon 0)
     (>= Time_T OrbitCmd_Tgon)
     (<= Time_T (+ OrbitCmd_Tgon 16))))
(assert(not (>= Atti_absqBT Changeable_qUL)))
(assert(not (>= (+ 0 DeltaT) tmpT)))
(assert(or (= Flg_BZ5 0) (= Flg_BZ5 3) (= Flg_BZ5 5) (= Flg_BZ5 10) (= Flg_BZ5 15)))
(assert(or (> TkCount_TjsumY temp1) (> TkCount_TjsumZ temp1) (> TkCount_TjsumX temp2)))
(assert(not (= Flg_ZT11 1)))
(assert(= 0 1))
